c generated by sgen
p cnf 109 228
-2 -3 -4 0
-1 -3 -4 0
-1 -2 -4 0
-1 -2 -3 0
-6 -7 -8 0
-5 -7 -8 0
-5 -6 -8 0
-5 -6 -7 0
-10 -11 -12 0
-9 -11 -12 0
-9 -10 -12 0
-9 -10 -11 0
-14 -15 -16 0
-13 -15 -16 0
-13 -14 -16 0
-13 -14 -15 0
-18 -19 -20 0
-17 -19 -20 0
-17 -18 -20 0
-17 -18 -19 0
-22 -23 -24 0
-21 -23 -24 0
-21 -22 -24 0
-21 -22 -23 0
-26 -27 -28 0
-25 -27 -28 0
-25 -26 -28 0
-25 -26 -27 0
-30 -31 -32 0
-29 -31 -32 0
-29 -30 -32 0
-29 -30 -31 0
-34 -35 -36 0
-33 -35 -36 0
-33 -34 -36 0
-33 -34 -35 0
-38 -39 -40 0
-37 -39 -40 0
-37 -38 -40 0
-37 -38 -39 0
-42 -43 -44 0
-41 -43 -44 0
-41 -42 -44 0
-41 -42 -43 0
-46 -47 -48 0
-45 -47 -48 0
-45 -46 -48 0
-45 -46 -47 0
-50 -51 -52 0
-49 -51 -52 0
-49 -50 -52 0
-49 -50 -51 0
-54 -55 -56 0
-53 -55 -56 0
-53 -54 -56 0
-53 -54 -55 0
-58 -59 -60 0
-57 -59 -60 0
-57 -58 -60 0
-57 -58 -59 0
-62 -63 -64 0
-61 -63 -64 0
-61 -62 -64 0
-61 -62 -63 0
-66 -67 -68 0
-65 -67 -68 0
-65 -66 -68 0
-65 -66 -67 0
-70 -71 -72 0
-69 -71 -72 0
-69 -70 -72 0
-69 -70 -71 0
-74 -75 -76 0
-73 -75 -76 0
-73 -74 -76 0
-73 -74 -75 0
-78 -79 -80 0
-77 -79 -80 0
-77 -78 -80 0
-77 -78 -79 0
-82 -83 -84 0
-81 -83 -84 0
-81 -82 -84 0
-81 -82 -83 0
-86 -87 -88 0
-85 -87 -88 0
-85 -86 -88 0
-85 -86 -87 0
-90 -91 -92 0
-89 -91 -92 0
-89 -90 -92 0
-89 -90 -91 0
-94 -95 -96 0
-93 -95 -96 0
-93 -94 -96 0
-93 -94 -95 0
-98 -99 -100 0
-97 -99 -100 0
-97 -98 -100 0
-97 -98 -99 0
-102 -103 -104 0
-101 -103 -104 0
-101 -102 -104 0
-101 -102 -103 0
-105 -106 -107 0
-105 -106 -108 0
-105 -106 -109 0
-105 -107 -108 0
-105 -107 -109 0
-105 -108 -109 0
-106 -107 -108 0
-106 -107 -109 0
-106 -108 -109 0
-107 -108 -109 0
63 81 102 0
88 81 102 0
88 63 102 0
88 63 81 0
10 76 37 0
14 76 37 0
14 10 37 0
14 10 76 0
89 28 85 0
72 28 85 0
72 89 85 0
72 89 28 0
66 1 26 0
93 1 26 0
93 66 26 0
93 66 1 0
40 17 8 0
27 17 8 0
27 40 8 0
27 40 17 0
42 86 36 0
98 86 36 0
98 42 36 0
98 42 86 0
52 18 87 0
108 18 87 0
108 52 87 0
108 52 18 0
7 24 75 0
2 24 75 0
2 7 75 0
2 7 24 0
50 30 83 0
45 30 83 0
45 50 83 0
45 50 30 0
62 31 74 0
33 31 74 0
33 62 74 0
33 62 31 0
43 19 32 0
4 19 32 0
4 43 32 0
4 43 19 0
15 3 79 0
34 3 79 0
34 15 79 0
34 15 3 0
54 71 44 0
101 71 44 0
101 54 44 0
101 54 71 0
12 109 69 0
21 109 69 0
21 12 69 0
21 12 109 0
16 47 103 0
68 47 103 0
68 16 103 0
68 16 47 0
80 39 46 0
105 39 46 0
105 80 46 0
105 80 39 0
41 25 51 0
9 25 51 0
9 41 51 0
9 41 25 0
58 49 23 0
35 49 23 0
35 58 23 0
35 58 49 0
100 55 107 0
22 55 107 0
22 100 107 0
22 100 55 0
57 106 65 0
82 106 65 0
82 57 65 0
82 57 106 0
96 48 53 0
73 48 53 0
73 96 53 0
73 96 48 0
60 11 92 0
20 11 92 0
20 60 92 0
20 60 11 0
104 97 6 0
91 97 6 0
91 104 6 0
91 104 97 0
61 90 38 0
94 90 38 0
94 61 38 0
94 61 90 0
67 70 78 0
64 70 78 0
64 67 78 0
64 67 70 0
13 84 5 0
56 84 5 0
56 13 5 0
56 13 84 0
29 59 77 0
29 59 99 0
29 59 95 0
29 77 99 0
29 77 95 0
29 99 95 0
59 77 99 0
59 77 95 0
59 99 95 0
77 99 95 0
